NAME : Proba_1
TYPE : TSP
DIMENSION : 15
EDGE_WEIGHT_TYPE : EUC_2D
NODE_COORD_SECTION
PATH : (8)(10)+(3)+(2)+(11)+(13)+(14)+(4)+(6)+(1)+(7)+(9)+(12)+(5)+(15)+
1 10 560
2 49 459
3 76 509
4 79 468
5 97 259
6 124 500
7 154 553
8 162 426
9 328 248
10 356 179
11 368 418
12 439 485
13 456 21
14 502 59
15 587 13
EOF
